NAME : tsp45_13.209.tour
COMMENT : Length = 209
COMMENT : Found by LKH [Keld Helsgaun]
TYPE : TOUR
DIMENSION : 45
TOUR_SECTION
1
6
26
41
36
37
7
32
5
43
44
22
15
42
27
2
4
33
16
13
14
35
21
19
45
9
11
12
3
31
34
10
24
17
29
39
28
23
30
40
20
8
38
25
18
-1
EOF
